\* problem *\
Maximize
OBJ: 300 Cars - 50 Machine_1s + 400 Trucks
Subject To
_C1: Cars >= 88
_C2: Trucks >= 26
_C3: 2 Cars + 3 Trucks <= 260
_C4: 0.8 Cars - Machine_1s + Trucks <= 0
_C5: Machine_1s <= 98
_C6: 0.6 Cars + 0.7 Trucks <= 73
End
